(set-info :source  loris-7.ddns.comp.nus.edu.sg/~project/hip/) 
;Variables declarations
(declare-fun res () Int)
(declare-fun next_127_1836 () Int)
(declare-fun q_1788 () Int)
(declare-fun lres_1835 () Int)
(declare-fun flted_117_1833 () Int)
(declare-fun xl_1819 () Int)
(declare-fun xs_1818 () Int)
(declare-fun n_1817 () Int)
(declare-fun flted_22_1787 () Int)
(declare-fun qs_1789 () Int)
(declare-fun xs () Int)
(declare-fun lg_1786 () Int)
(declare-fun xl () Int)
(declare-fun x_primed () Int)
(declare-fun x () Int)
(declare-fun v () Int)
(declare-fun n () Int)
(declare-fun v_primed () Int)
(declare-fun v_bool_121_1352_primed () Int)
(declare-fun v_bool_125_1351_primed () Int)
(declare-fun q_1934 () Int)
(declare-fun v_node_127_1928 () Int)
(declare-fun sres_1834 () Int)
(declare-fun sm_1785 () Int)
(declare-fun qs_1935 () Int)
;Relations declarations
;Axioms assertions
;Antecedent
(assert (= res x_primed))
(assert (= next_127_1836 q_1788))
(assert (> q_1788 0))
(assert (<= xs_1818 xl_1819))
(assert (<= 1 n_1817))
(assert (or (and (= lres_1835 v_primed) (>= v_primed xl_1819)) (and (= lres_1835 xl_1819) (< v_primed xl_1819))))
(assert (or (and (= sres_1834 v_primed) (< v_primed xs_1818)) (and (= sres_1834 xs_1818) (>= v_primed xs_1818))))
(assert (= flted_117_1833 (+ 1 n_1817)))
(assert (<= qs_1789 lg_1786))
(assert (<= 1 flted_22_1787))
(assert (= xl_1819 lg_1786))
(assert (= xs_1818 qs_1789))
(assert (= n_1817 flted_22_1787))
(assert (= (+ flted_22_1787 1) n))
(assert (<= xs qs_1789))
(assert (= sm_1785 xs))
(assert (= lg_1786 xl))
(assert (= x_primed x))
(assert (= v_primed v))
(assert (< 0 n))
(assert (< sm_1785 v_primed))
(assert (not (> v_bool_121_1352_primed 0)))
(assert (> v_bool_125_1351_primed 0))
(assert (= q_1934 v_node_127_1928))
(assert (= qs_1935 sres_1834))
(assert (<= sm_1785 qs_1935))
;Negation of Consequence
(assert (not false))
(check-sat)